
Gurobi 6.5.2 (win64) logging started 07/23/16 02:46:27


Gurobi 6.5.2 (win64) logging started 07/23/16 02:46:27

Optimize a model with 15252 rows, 1340 columns and 33772 nonzeros
Coefficient statistics:
  Matrix range    [4e-06, 1e+03]
  Objective range [1e+00, 1e+00]
  Bounds range    [1e+00, 1e+00]
  RHS range       [1e+00, 1e+03]
Found heuristic solution: objective 315.755
Presolve removed 15228 rows and 1316 columns
Presolve time: 0.01s
Presolved: 24 rows, 24 columns, 74 nonzeros
Variable types: 24 continuous, 0 integer (0 binary)

Root relaxation: objective 1.723566e+02, 18 iterations, 0.00 seconds

    Nodes    |    Current Node    |     Objective Bounds      |     Work
 Expl Unexpl |  Obj  Depth IntInf | Incumbent    BestBd   Gap | It/Node Time

*    0     0               0     172.3565823  172.35658  0.00%     -    0s

Explored 0 nodes (18 simplex iterations) in 0.03 seconds
Thread count was 8 (of 8 available processors)

Optimal solution found (tolerance 1.00e-04)
Best objective 1.723565823332e+02, best bound 1.723565823332e+02, gap 0.0%

Wrote requested result file 'H2\instance12\\Results12EC_Sol2.lp'

